graphene                                
   1.00000000000000     
     1.6035499999999996   -2.7774300603399991    0.0000000000000000
     1.6035499999999996    2.7774300603399991    0.0000000000000000
     0.0000000000000000    0.0000000000000000   34.0000000000000000
   Ga   In   O    Te
     1     1     1     1
Direct
  0.3333772439173458  0.6667057956819630  0.5419839258237518
  0.3333312171751316  0.6666709092082063  0.4585293399388467
 -0.0000480697837440 -0.0000614986479072  0.5615655338082010
 -0.0000003913087404  0.0000047937577382  0.3646212004291904
 
  0.00000000E+00  0.00000000E+00  0.00000000E+00
  0.00000000E+00  0.00000000E+00  0.00000000E+00
  0.00000000E+00  0.00000000E+00  0.00000000E+00
  0.00000000E+00  0.00000000E+00  0.00000000E+00
